c Mesh Graph
c 30 Rows, 28 columns, capacities in range [0, 900]
p max 842 2490
n 1 s
n 842 t
a 1 31 2700
a 1 30 2700
a 1 29 2700
a 1 28 2700
a 1 27 2700
a 1 26 2700
a 1 25 2700
a 1 24 2700
a 1 23 2700
a 1 22 2700
a 1 21 2700
a 1 20 2700
a 1 19 2700
a 1 18 2700
a 1 17 2700
a 1 16 2700
a 1 15 2700
a 1 14 2700
a 1 13 2700
a 1 12 2700
a 1 11 2700
a 1 10 2700
a 1 9 2700
a 1 8 2700
a 1 7 2700
a 1 6 2700
a 1 5 2700
a 1 4 2700
a 1 3 2700
a 1 2 2700
a 2 33 478
a 2 32 287
a 2 61 884
a 3 34 836
a 3 33 294
a 3 32 116
a 4 35 250
a 4 34 193
a 4 33 587
a 5 36 428
a 5 35 663
a 5 34 722
a 6 37 564
a 6 36 260
a 6 35 591
a 7 38 127
a 7 37 241
a 7 36 527
a 8 39 612
a 8 38 137
a 8 37 773
a 9 40 430
a 9 39 268
a 9 38 369
a 10 41 63
a 10 40 531
a 10 39 783
a 11 42 236
a 11 41 668
a 11 40 824
a 12 43 523
a 12 42 703
a 12 41 330
a 13 44 868
a 13 43 870
a 13 42 859
a 14 45 212
a 14 44 557
a 14 43 794
a 15 46 874
a 15 45 430
a 15 44 143
a 16 47 285
a 16 46 120
a 16 45 622
a 17 48 525
a 17 47 699
a 17 46 338
a 18 49 714
a 18 48 571
a 18 47 516
a 19 50 81
a 19 49 92
a 19 48 227
a 20 51 663
a 20 50 874
a 20 49 657
a 21 52 482
a 21 51 797
a 21 50 771
a 22 53 285
a 22 52 226
a 22 51 106
a 23 54 306
a 23 53 237
a 23 52 628
a 24 55 14
a 24 54 130
a 24 53 647
a 25 56 496
a 25 55 325
a 25 54 858
a 26 57 615
a 26 56 46
a 26 55 883
a 27 58 465
a 27 57 435
a 27 56 268
a 28 59 188
a 28 58 51
a 28 57 844
a 29 60 279
a 29 59 277
a 29 58 709
a 30 61 304
a 30 60 85
a 30 59 789
a 31 32 200
a 31 61 855
a 31 60 552
a 32 63 477
a 32 62 61
a 32 91 133
a 33 64 713
a 33 63 740
a 33 62 469
a 34 65 895
a 34 64 487
a 34 63 827
a 35 66 371
a 35 65 496
a 35 64 840
a 36 67 468
a 36 66 479
a 36 65 435
a 37 68 3
a 37 67 798
a 37 66 202
a 38 69 53
a 38 68 793
a 38 67 718
a 39 70 381
a 39 69 602
a 39 68 57
a 40 71 466
a 40 70 542
a 40 69 387
a 41 72 420
a 41 71 245
a 41 70 690
a 42 73 532
a 42 72 430
a 42 71 41
a 43 74 372
a 43 73 898
a 43 72 518
a 44 75 10
a 44 74 876
a 44 73 382
a 45 76 557
a 45 75 868
a 45 74 428
a 46 77 187
a 46 76 454
a 46 75 798
a 47 78 84
a 47 77 707
a 47 76 366
a 48 79 29
a 48 78 525
a 48 77 420
a 49 80 630
a 49 79 633
a 49 78 472
a 50 81 271
a 50 80 120
a 50 79 4
a 51 82 516
a 51 81 809
a 51 80 469
a 52 83 97
a 52 82 850
a 52 81 41
a 53 84 146
a 53 83 519
a 53 82 624
a 54 85 122
a 54 84 52
a 54 83 147
a 55 86 89
a 55 85 480
a 55 84 156
a 56 87 542
a 56 86 429
a 56 85 765
a 57 88 401
a 57 87 794
a 57 86 51
a 58 89 25
a 58 88 365
a 58 87 135
a 59 90 657
a 59 89 888
a 59 88 215
a 60 91 828
a 60 90 892
a 60 89 844
a 61 62 737
a 61 91 460
a 61 90 266
a 62 93 738
a 62 92 552
a 62 121 833
a 63 94 408
a 63 93 276
a 63 92 29
a 64 95 459
a 64 94 422
a 64 93 175
a 65 96 38
a 65 95 630
a 65 94 296
a 66 97 519
a 66 96 494
a 66 95 436
a 67 98 412
a 67 97 544
a 67 96 129
a 68 99 777
a 68 98 730
a 68 97 529
a 69 100 764
a 69 99 44
a 69 98 605
a 70 101 807
a 70 100 39
a 70 99 414
a 71 102 419
a 71 101 305
a 71 100 341
a 72 103 70
a 72 102 289
a 72 101 229
a 73 104 397
a 73 103 318
a 73 102 118
a 74 105 871
a 74 104 544
a 74 103 525
a 75 106 600
a 75 105 891
a 75 104 84
a 76 107 245
a 76 106 426
a 76 105 173
a 77 108 840
a 77 107 606
a 77 106 691
a 78 109 670
a 78 108 287
a 78 107 255
a 79 110 765
a 79 109 43
a 79 108 183
a 80 111 856
a 80 110 508
a 80 109 98
a 81 112 312
a 81 111 849
a 81 110 5
a 82 113 600
a 82 112 229
a 82 111 423
a 83 114 69
a 83 113 347
a 83 112 544
a 84 115 612
a 84 114 23
a 84 113 41
a 85 116 602
a 85 115 106
a 85 114 11
a 86 117 179
a 86 116 331
a 86 115 662
a 87 118 837
a 87 117 121
a 87 116 6
a 88 119 223
a 88 118 427
a 88 117 845
a 89 120 317
a 89 119 609
a 89 118 666
a 90 121 825
a 90 120 759
a 90 119 583
a 91 92 825
a 91 121 763
a 91 120 538
a 92 123 153
a 92 122 337
a 92 151 1
a 93 124 551
a 93 123 880
a 93 122 600
a 94 125 574
a 94 124 72
a 94 123 669
a 95 126 731
a 95 125 82
a 95 124 432
a 96 127 161
a 96 126 795
a 96 125 134
a 97 128 282
a 97 127 800
a 97 126 364
a 98 129 760
a 98 128 797
a 98 127 300
a 99 130 469
a 99 129 614
a 99 128 574
a 100 131 327
a 100 130 296
a 100 129 891
a 101 132 241
a 101 131 885
a 101 130 867
a 102 133 577
a 102 132 885
a 102 131 791
a 103 134 608
a 103 133 637
a 103 132 43
a 104 135 680
a 104 134 457
a 104 133 646
a 105 136 813
a 105 135 888
a 105 134 319
a 106 137 760
a 106 136 173
a 106 135 149
a 107 138 711
a 107 137 537
a 107 136 310
a 108 139 607
a 108 138 888
a 108 137 643
a 109 140 373
a 109 139 614
a 109 138 502
a 110 141 720
a 110 140 656
a 110 139 122
a 111 142 705
a 111 141 622
a 111 140 500
a 112 143 741
a 112 142 512
a 112 141 740
a 113 144 529
a 113 143 606
a 113 142 468
a 114 145 85
a 114 144 351
a 114 143 228
a 115 146 125
a 115 145 721
a 115 144 59
a 116 147 297
a 116 146 870
a 116 145 23
a 117 148 885
a 117 147 331
a 117 146 782
a 118 149 873
a 118 148 73
a 118 147 593
a 119 150 586
a 119 149 626
a 119 148 351
a 120 151 341
a 120 150 800
a 120 149 723
a 121 122 114
a 121 151 399
a 121 150 543
a 122 153 625
a 122 152 291
a 122 181 399
a 123 154 382
a 123 153 810
a 123 152 291
a 124 155 733
a 124 154 137
a 124 153 820
a 125 156 605
a 125 155 195
a 125 154 56
a 126 157 574
a 126 156 270
a 126 155 180
a 127 158 56
a 127 157 151
a 127 156 477
a 128 159 180
a 128 158 743
a 128 157 461
a 129 160 806
a 129 159 194
a 129 158 485
a 130 161 705
a 130 160 68
a 130 159 222
a 131 162 255
a 131 161 662
a 131 160 614
a 132 163 545
a 132 162 160
a 132 161 727
a 133 164 507
a 133 163 503
a 133 162 503
a 134 165 643
a 134 164 422
a 134 163 885
a 135 166 890
a 135 165 529
a 135 164 769
a 136 167 259
a 136 166 709
a 136 165 473
a 137 168 409
a 137 167 337
a 137 166 199
a 138 169 304
a 138 168 849
a 138 167 254
a 139 170 549
a 139 169 434
a 139 168 434
a 140 171 668
a 140 170 655
a 140 169 391
a 141 172 430
a 141 171 369
a 141 170 247
a 142 173 589
a 142 172 247
a 142 171 501
a 143 174 191
a 143 173 750
a 143 172 198
a 144 175 664
a 144 174 734
a 144 173 704
a 145 176 293
a 145 175 654
a 145 174 498
a 146 177 153
a 146 176 226
a 146 175 487
a 147 178 489
a 147 177 476
a 147 176 797
a 148 179 437
a 148 178 730
a 148 177 358
a 149 180 22
a 149 179 315
a 149 178 661
a 150 181 729
a 150 180 705
a 150 179 361
a 151 152 249
a 151 181 51
a 151 180 128
a 152 183 495
a 152 182 603
a 152 211 557
a 153 184 344
a 153 183 800
a 153 182 298
a 154 185 229
a 154 184 603
a 154 183 540
a 155 186 882
a 155 185 201
a 155 184 304
a 156 187 260
a 156 186 739
a 156 185 648
a 157 188 735
a 157 187 636
a 157 186 852
a 158 189 616
a 158 188 93
a 158 187 440
a 159 190 30
a 159 189 805
a 159 188 28
a 160 191 786
a 160 190 265
a 160 189 50
a 161 192 836
a 161 191 444
a 161 190 830
a 162 193 539
a 162 192 101
a 162 191 178
a 163 194 490
a 163 193 450
a 163 192 672
a 164 195 193
a 164 194 89
a 164 193 168
a 165 196 445
a 165 195 444
a 165 194 396
a 166 197 283
a 166 196 191
a 166 195 430
a 167 198 70
a 167 197 142
a 167 196 741
a 168 199 162
a 168 198 633
a 168 197 627
a 169 200 118
a 169 199 661
a 169 198 343
a 170 201 382
a 170 200 762
a 170 199 424
a 171 202 826
a 171 201 691
a 171 200 310
a 172 203 78
a 172 202 868
a 172 201 297
a 173 204 527
a 173 203 691
a 173 202 835
a 174 205 615
a 174 204 858
a 174 203 425
a 175 206 159
a 175 205 406
a 175 204 669
a 176 207 401
a 176 206 887
a 176 205 213
a 177 208 595
a 177 207 727
a 177 206 547
a 178 209 379
a 178 208 453
a 178 207 617
a 179 210 191
a 179 209 847
a 179 208 830
a 180 211 52
a 180 210 371
a 180 209 48
a 181 182 794
a 181 211 732
a 181 210 481
a 182 213 813
a 182 212 128
a 182 241 458
a 183 214 656
a 183 213 115
a 183 212 587
a 184 215 613
a 184 214 591
a 184 213 213
a 185 216 170
a 185 215 411
a 185 214 880
a 186 217 156
a 186 216 675
a 186 215 190
a 187 218 34
a 187 217 321
a 187 216 642
a 188 219 539
a 188 218 89
a 188 217 388
a 189 220 485
a 189 219 71
a 189 218 767
a 190 221 7
a 190 220 118
a 190 219 57
a 191 222 738
a 191 221 650
a 191 220 161
a 192 223 18
a 192 222 260
a 192 221 106
a 193 224 184
a 193 223 846
a 193 222 19
a 194 225 774
a 194 224 159
a 194 223 674
a 195 226 284
a 195 225 190
a 195 224 438
a 196 227 58
a 196 226 379
a 196 225 608
a 197 228 430
a 197 227 172
a 197 226 815
a 198 229 519
a 198 228 560
a 198 227 1
a 199 230 589
a 199 229 426
a 199 228 539
a 200 231 758
a 200 230 534
a 200 229 175
a 201 232 559
a 201 231 694
a 201 230 182
a 202 233 818
a 202 232 800
a 202 231 71
a 203 234 764
a 203 233 870
a 203 232 140
a 204 235 74
a 204 234 695
a 204 233 323
a 205 236 263
a 205 235 232
a 205 234 248
a 206 237 693
a 206 236 891
a 206 235 583
a 207 238 16
a 207 237 858
a 207 236 692
a 208 239 575
a 208 238 858
a 208 237 222
a 209 240 152
a 209 239 548
a 209 238 792
a 210 241 738
a 210 240 722
a 210 239 532
a 211 212 531
a 211 241 55
a 211 240 441
a 212 243 482
a 212 242 126
a 212 271 99
a 213 244 503
a 213 243 317
a 213 242 17
a 214 245 297
a 214 244 640
a 214 243 832
a 215 246 581
a 215 245 39
a 215 244 5
a 216 247 571
a 216 246 622
a 216 245 319
a 217 248 580
a 217 247 413
a 217 246 163
a 218 249 537
a 218 248 686
a 218 247 178
a 219 250 184
a 219 249 577
a 219 248 805
a 220 251 58
a 220 250 260
a 220 249 108
a 221 252 112
a 221 251 700
a 221 250 845
a 222 253 237
a 222 252 851
a 222 251 528
a 223 254 606
a 223 253 19
a 223 252 161
a 224 255 345
a 224 254 850
a 224 253 664
a 225 256 435
a 225 255 6
a 225 254 112
a 226 257 156
a 226 256 376
a 226 255 692
a 227 258 569
a 227 257 590
a 227 256 415
a 228 259 406
a 228 258 819
a 228 257 94
a 229 260 83
a 229 259 723
a 229 258 683
a 230 261 394
a 230 260 831
a 230 259 18
a 231 262 194
a 231 261 827
a 231 260 75
a 232 263 144
a 232 262 454
a 232 261 187
a 233 264 214
a 233 263 615
a 233 262 475
a 234 265 163
a 234 264 378
a 234 263 180
a 235 266 220
a 235 265 489
a 235 264 576
a 236 267 595
a 236 266 333
a 236 265 111
a 237 268 336
a 237 267 747
a 237 266 318
a 238 269 254
a 238 268 892
a 238 267 38
a 239 270 129
a 239 269 674
a 239 268 444
a 240 271 111
a 240 270 692
a 240 269 526
a 241 242 37
a 241 271 818
a 241 270 19
a 242 273 491
a 242 272 156
a 242 301 264
a 243 274 205
a 243 273 631
a 243 272 459
a 244 275 634
a 244 274 862
a 244 273 672
a 245 276 274
a 245 275 590
a 245 274 886
a 246 277 606
a 246 276 752
a 246 275 205
a 247 278 504
a 247 277 169
a 247 276 851
a 248 279 496
a 248 278 207
a 248 277 286
a 249 280 321
a 249 279 650
a 249 278 540
a 250 281 164
a 250 280 327
a 250 279 668
a 251 282 82
a 251 281 397
a 251 280 778
a 252 283 237
a 252 282 661
a 252 281 866
a 253 284 19
a 253 283 271
a 253 282 456
a 254 285 33
a 254 284 43
a 254 283 712
a 255 286 622
a 255 285 80
a 255 284 497
a 256 287 473
a 256 286 285
a 256 285 771
a 257 288 641
a 257 287 235
a 257 286 528
a 258 289 899
a 258 288 573
a 258 287 184
a 259 290 648
a 259 289 264
a 259 288 731
a 260 291 74
a 260 290 31
a 260 289 151
a 261 292 523
a 261 291 860
a 261 290 315
a 262 293 283
a 262 292 825
a 262 291 448
a 263 294 605
a 263 293 433
a 263 292 736
a 264 295 699
a 264 294 244
a 264 293 755
a 265 296 779
a 265 295 741
a 265 294 787
a 266 297 163
a 266 296 663
a 266 295 560
a 267 298 449
a 267 297 342
a 267 296 184
a 268 299 173
a 268 298 525
a 268 297 824
a 269 300 436
a 269 299 355
a 269 298 823
a 270 301 466
a 270 300 558
a 270 299 622
a 271 272 477
a 271 301 872
a 271 300 748
a 272 303 402
a 272 302 419
a 272 331 370
a 273 304 834
a 273 303 254
a 273 302 704
a 274 305 229
a 274 304 160
a 274 303 408
a 275 306 121
a 275 305 98
a 275 304 207
a 276 307 835
a 276 306 709
a 276 305 85
a 277 308 277
a 277 307 892
a 277 306 299
a 278 309 853
a 278 308 816
a 278 307 799
a 279 310 360
a 279 309 790
a 279 308 72
a 280 311 17
a 280 310 511
a 280 309 507
a 281 312 40
a 281 311 410
a 281 310 125
a 282 313 510
a 282 312 779
a 282 311 601
a 283 314 815
a 283 313 582
a 283 312 154
a 284 315 127
a 284 314 90
a 284 313 139
a 285 316 224
a 285 315 348
a 285 314 368
a 286 317 33
a 286 316 432
a 286 315 488
a 287 318 76
a 287 317 782
a 287 316 423
a 288 319 891
a 288 318 680
a 288 317 751
a 289 320 832
a 289 319 751
a 289 318 755
a 290 321 495
a 290 320 358
a 290 319 214
a 291 322 4
a 291 321 482
a 291 320 282
a 292 323 783
a 292 322 234
a 292 321 321
a 293 324 516
a 293 323 388
a 293 322 882
a 294 325 605
a 294 324 526
a 294 323 797
a 295 326 52
a 295 325 893
a 295 324 23
a 296 327 535
a 296 326 533
a 296 325 298
a 297 328 416
a 297 327 107
a 297 326 382
a 298 329 196
a 298 328 9
a 298 327 458
a 299 330 98
a 299 329 763
a 299 328 500
a 300 331 455
a 300 330 77
a 300 329 484
a 301 302 88
a 301 331 410
a 301 330 78
a 302 333 322
a 302 332 783
a 302 361 133
a 303 334 761
a 303 333 764
a 303 332 67
a 304 335 386
a 304 334 712
a 304 333 583
a 305 336 431
a 305 335 786
a 305 334 287
a 306 337 115
a 306 336 184
a 306 335 391
a 307 338 221
a 307 337 617
a 307 336 77
a 308 339 229
a 308 338 226
a 308 337 493
a 309 340 91
a 309 339 726
a 309 338 740
a 310 341 219
a 310 340 361
a 310 339 837
a 311 342 629
a 311 341 438
a 311 340 444
a 312 343 511
a 312 342 622
a 312 341 583
a 313 344 426
a 313 343 689
a 313 342 56
a 314 345 238
a 314 344 371
a 314 343 816
a 315 346 123
a 315 345 709
a 315 344 354
a 316 347 358
a 316 346 251
a 316 345 784
a 317 348 127
a 317 347 328
a 317 346 898
a 318 349 352
a 318 348 872
a 318 347 270
a 319 350 229
a 319 349 711
a 319 348 550
a 320 351 589
a 320 350 699
a 320 349 640
a 321 352 178
a 321 351 294
a 321 350 11
a 322 353 800
a 322 352 877
a 322 351 691
a 323 354 588
a 323 353 32
a 323 352 353
a 324 355 58
a 324 354 900
a 324 353 778
a 325 356 818
a 325 355 353
a 325 354 167
a 326 357 169
a 326 356 236
a 326 355 342
a 327 358 496
a 327 357 285
a 327 356 699
a 328 359 467
a 328 358 606
a 328 357 877
a 329 360 329
a 329 359 255
a 329 358 329
a 330 361 179
a 330 360 894
a 330 359 609
a 331 332 473
a 331 361 56
a 331 360 298
a 332 363 501
a 332 362 746
a 332 391 475
a 333 364 584
a 333 363 198
a 333 362 426
a 334 365 583
a 334 364 128
a 334 363 113
a 335 366 35
a 335 365 294
a 335 364 222
a 336 367 322
a 336 366 635
a 336 365 140
a 337 368 658
a 337 367 486
a 337 366 360
a 338 369 363
a 338 368 462
a 338 367 855
a 339 370 617
a 339 369 842
a 339 368 473
a 340 371 663
a 340 370 551
a 340 369 853
a 341 372 718
a 341 371 900
a 341 370 183
a 342 373 616
a 342 372 474
a 342 371 655
a 343 374 865
a 343 373 52
a 343 372 307
a 344 375 92
a 344 374 164
a 344 373 891
a 345 376 438
a 345 375 438
a 345 374 573
a 346 377 172
a 346 376 629
a 346 375 660
a 347 378 657
a 347 377 88
a 347 376 81
a 348 379 271
a 348 378 42
a 348 377 791
a 349 380 212
a 349 379 566
a 349 378 253
a 350 381 762
a 350 380 518
a 350 379 870
a 351 382 813
a 351 381 752
a 351 380 684
a 352 383 439
a 352 382 507
a 352 381 501
a 353 384 490
a 353 383 865
a 353 382 268
a 354 385 705
a 354 384 855
a 354 383 233
a 355 386 242
a 355 385 580
a 355 384 376
a 356 387 870
a 356 386 339
a 356 385 813
a 357 388 57
a 357 387 471
a 357 386 137
a 358 389 150
a 358 388 361
a 358 387 845
a 359 390 715
a 359 389 666
a 359 388 215
a 360 391 384
a 360 390 687
a 360 389 427
a 361 362 236
a 361 391 470
a 361 390 340
a 362 393 794
a 362 392 122
a 362 421 253
a 363 394 810
a 363 393 390
a 363 392 691
a 364 395 765
a 364 394 674
a 364 393 332
a 365 396 496
a 365 395 149
a 365 394 136
a 366 397 834
a 366 396 114
a 366 395 378
a 367 398 456
a 367 397 250
a 367 396 399
a 368 399 869
a 368 398 194
a 368 397 456
a 369 400 634
a 369 399 461
a 369 398 657
a 370 401 472
a 370 400 887
a 370 399 524
a 371 402 41
a 371 401 378
a 371 400 59
a 372 403 162
a 372 402 682
a 372 401 346
a 373 404 551
a 373 403 524
a 373 402 291
a 374 405 376
a 374 404 855
a 374 403 201
a 375 406 525
a 375 405 143
a 375 404 65
a 376 407 690
a 376 406 520
a 376 405 560
a 377 408 39
a 377 407 70
a 377 406 545
a 378 409 284
a 378 408 577
a 378 407 152
a 379 410 744
a 379 409 334
a 379 408 120
a 380 411 782
a 380 410 857
a 380 409 805
a 381 412 312
a 381 411 67
a 381 410 376
a 382 413 93
a 382 412 413
a 382 411 468
a 383 414 669
a 383 413 703
a 383 412 630
a 384 415 675
a 384 414 3
a 384 413 332
a 385 416 817
a 385 415 119
a 385 414 708
a 386 417 488
a 386 416 678
a 386 415 384
a 387 418 558
a 387 417 374
a 387 416 173
a 388 419 234
a 388 418 526
a 388 417 263
a 389 420 619
a 389 419 697
a 389 418 598
a 390 421 627
a 390 420 654
a 390 419 442
a 391 392 694
a 391 421 181
a 391 420 375
a 392 423 206
a 392 422 649
a 392 451 686
a 393 424 60
a 393 423 430
a 393 422 831
a 394 425 63
a 394 424 761
a 394 423 599
a 395 426 181
a 395 425 620
a 395 424 425
a 396 427 11
a 396 426 103
a 396 425 342
a 397 428 384
a 397 427 327
a 397 426 881
a 398 429 9
a 398 428 641
a 398 427 590
a 399 430 758
a 399 429 339
a 399 428 824
a 400 431 511
a 400 430 832
a 400 429 594
a 401 432 691
a 401 431 306
a 401 430 321
a 402 433 439
a 402 432 92
a 402 431 114
a 403 434 868
a 403 433 22
a 403 432 371
a 404 435 781
a 404 434 672
a 404 433 430
a 405 436 500
a 405 435 196
a 405 434 544
a 406 437 655
a 406 436 589
a 406 435 725
a 407 438 133
a 407 437 570
a 407 436 787
a 408 439 774
a 408 438 311
a 408 437 270
a 409 440 264
a 409 439 234
a 409 438 331
a 410 441 195
a 410 440 880
a 410 439 188
a 411 442 552
a 411 441 300
a 411 440 750
a 412 443 643
a 412 442 465
a 412 441 540
a 413 444 716
a 413 443 887
a 413 442 131
a 414 445 487
a 414 444 416
a 414 443 150
a 415 446 735
a 415 445 112
a 415 444 82
a 416 447 423
a 416 446 888
a 416 445 634
a 417 448 144
a 417 447 774
a 417 446 388
a 418 449 455
a 418 448 143
a 418 447 520
a 419 450 740
a 419 449 525
a 419 448 445
a 420 451 719
a 420 450 764
a 420 449 760
a 421 422 170
a 421 451 613
a 421 450 54
a 422 453 634
a 422 452 305
a 422 481 606
a 423 454 620
a 423 453 435
a 423 452 400
a 424 455 188
a 424 454 636
a 424 453 216
a 425 456 351
a 425 455 770
a 425 454 754
a 426 457 338
a 426 456 503
a 426 455 588
a 427 458 211
a 427 457 890
a 427 456 163
a 428 459 405
a 428 458 561
a 428 457 306
a 429 460 30
a 429 459 158
a 429 458 812
a 430 461 793
a 430 460 17
a 430 459 704
a 431 462 506
a 431 461 123
a 431 460 522
a 432 463 862
a 432 462 780
a 432 461 744
a 433 464 448
a 433 463 279
a 433 462 529
a 434 465 183
a 434 464 546
a 434 463 301
a 435 466 52
a 435 465 400
a 435 464 488
a 436 467 554
a 436 466 87
a 436 465 890
a 437 468 595
a 437 467 249
a 437 466 327
a 438 469 308
a 438 468 607
a 438 467 537
a 439 470 465
a 439 469 518
a 439 468 93
a 440 471 481
a 440 470 321
a 440 469 122
a 441 472 655
a 441 471 895
a 441 470 67
a 442 473 534
a 442 472 738
a 442 471 624
a 443 474 813
a 443 473 418
a 443 472 585
a 444 475 510
a 444 474 718
a 444 473 132
a 445 476 9
a 445 475 357
a 445 474 366
a 446 477 96
a 446 476 346
a 446 475 470
a 447 478 396
a 447 477 672
a 447 476 123
a 448 479 102
a 448 478 360
a 448 477 770
a 449 480 672
a 449 479 453
a 449 478 177
a 450 481 144
a 450 480 626
a 450 479 641
a 451 452 190
a 451 481 692
a 451 480 273
a 452 483 79
a 452 482 467
a 452 511 28
a 453 484 497
a 453 483 151
a 453 482 613
a 454 485 314
a 454 484 334
a 454 483 525
a 455 486 671
a 455 485 700
a 455 484 187
a 456 487 116
a 456 486 269
a 456 485 195
a 457 488 840
a 457 487 443
a 457 486 342
a 458 489 299
a 458 488 364
a 458 487 738
a 459 490 803
a 459 489 540
a 459 488 891
a 460 491 529
a 460 490 332
a 460 489 714
a 461 492 372
a 461 491 605
a 461 490 858
a 462 493 839
a 462 492 684
a 462 491 147
a 463 494 141
a 463 493 396
a 463 492 226
a 464 495 527
a 464 494 73
a 464 493 722
a 465 496 326
a 465 495 259
a 465 494 135
a 466 497 646
a 466 496 453
a 466 495 857
a 467 498 240
a 467 497 847
a 467 496 73
a 468 499 604
a 468 498 684
a 468 497 12
a 469 500 243
a 469 499 726
a 469 498 362
a 470 501 575
a 470 500 540
a 470 499 317
a 471 502 331
a 471 501 497
a 471 500 845
a 472 503 114
a 472 502 695
a 472 501 368
a 473 504 561
a 473 503 20
a 473 502 358
a 474 505 633
a 474 504 793
a 474 503 551
a 475 506 891
a 475 505 80
a 475 504 177
a 476 507 496
a 476 506 36
a 476 505 554
a 477 508 442
a 477 507 108
a 477 506 299
a 478 509 277
a 478 508 171
a 478 507 538
a 479 510 102
a 479 509 585
a 479 508 241
a 480 511 693
a 480 510 1
a 480 509 484
a 481 482 341
a 481 511 897
a 481 510 210
a 482 513 136
a 482 512 364
a 482 541 540
a 483 514 207
a 483 513 774
a 483 512 705
a 484 515 152
a 484 514 424
a 484 513 365
a 485 516 231
a 485 515 652
a 485 514 150
a 486 517 266
a 486 516 305
a 486 515 140
a 487 518 426
a 487 517 603
a 487 516 687
a 488 519 648
a 488 518 292
a 488 517 280
a 489 520 332
a 489 519 585
a 489 518 608
a 490 521 332
a 490 520 220
a 490 519 762
a 491 522 328
a 491 521 429
a 491 520 554
a 492 523 744
a 492 522 120
a 492 521 895
a 493 524 669
a 493 523 824
a 493 522 182
a 494 525 244
a 494 524 340
a 494 523 388
a 495 526 895
a 495 525 489
a 495 524 539
a 496 527 299
a 496 526 681
a 496 525 821
a 497 528 53
a 497 527 519
a 497 526 187
a 498 529 396
a 498 528 799
a 498 527 664
a 499 530 80
a 499 529 506
a 499 528 411
a 500 531 299
a 500 530 367
a 500 529 743
a 501 532 779
a 501 531 73
a 501 530 226
a 502 533 898
a 502 532 67
a 502 531 554
a 503 534 873
a 503 533 248
a 503 532 449
a 504 535 313
a 504 534 687
a 504 533 217
a 505 536 801
a 505 535 378
a 505 534 460
a 506 537 633
a 506 536 298
a 506 535 454
a 507 538 252
a 507 537 536
a 507 536 804
a 508 539 150
a 508 538 299
a 508 537 8
a 509 540 707
a 509 539 762
a 509 538 455
a 510 541 226
a 510 540 604
a 510 539 535
a 511 512 298
a 511 541 829
a 511 540 885
a 512 543 416
a 512 542 534
a 512 571 764
a 513 544 715
a 513 543 82
a 513 542 761
a 514 545 501
a 514 544 298
a 514 543 786
a 515 546 30
a 515 545 809
a 515 544 198
a 516 547 380
a 516 546 414
a 516 545 150
a 517 548 15
a 517 547 317
a 517 546 835
a 518 549 366
a 518 548 376
a 518 547 186
a 519 550 227
a 519 549 831
a 519 548 387
a 520 551 830
a 520 550 517
a 520 549 193
a 521 552 810
a 521 551 553
a 521 550 470
a 522 553 496
a 522 552 416
a 522 551 767
a 523 554 577
a 523 553 329
a 523 552 334
a 524 555 27
a 524 554 214
a 524 553 148
a 525 556 887
a 525 555 463
a 525 554 701
a 526 557 401
a 526 556 664
a 526 555 730
a 527 558 717
a 527 557 598
a 527 556 209
a 528 559 245
a 528 558 783
a 528 557 276
a 529 560 227
a 529 559 321
a 529 558 641
a 530 561 795
a 530 560 566
a 530 559 19
a 531 562 447
a 531 561 135
a 531 560 900
a 532 563 863
a 532 562 54
a 532 561 809
a 533 564 343
a 533 563 387
a 533 562 404
a 534 565 608
a 534 564 535
a 534 563 133
a 535 566 170
a 535 565 335
a 535 564 211
a 536 567 885
a 536 566 216
a 536 565 197
a 537 568 583
a 537 567 425
a 537 566 597
a 538 569 517
a 538 568 752
a 538 567 466
a 539 570 838
a 539 569 544
a 539 568 762
a 540 571 503
a 540 570 562
a 540 569 88
a 541 542 689
a 541 571 561
a 541 570 882
a 542 573 742
a 542 572 521
a 542 601 480
a 543 574 229
a 543 573 25
a 543 572 494
a 544 575 763
a 544 574 209
a 544 573 836
a 545 576 197
a 545 575 471
a 545 574 543
a 546 577 412
a 546 576 667
a 546 575 764
a 547 578 888
a 547 577 416
a 547 576 801
a 548 579 791
a 548 578 33
a 548 577 535
a 549 580 434
a 549 579 794
a 549 578 151
a 550 581 95
a 550 580 881
a 550 579 140
a 551 582 655
a 551 581 14
a 551 580 694
a 552 583 276
a 552 582 545
a 552 581 483
a 553 584 352
a 553 583 139
a 553 582 324
a 554 585 612
a 554 584 74
a 554 583 552
a 555 586 182
a 555 585 669
a 555 584 466
a 556 587 900
a 556 586 584
a 556 585 714
a 557 588 415
a 557 587 536
a 557 586 278
a 558 589 447
a 558 588 170
a 558 587 265
a 559 590 392
a 559 589 373
a 559 588 208
a 560 591 424
a 560 590 512
a 560 589 641
a 561 592 437
a 561 591 358
a 561 590 788
a 562 593 82
a 562 592 840
a 562 591 594
a 563 594 272
a 563 593 315
a 563 592 21
a 564 595 397
a 564 594 19
a 564 593 372
a 565 596 165
a 565 595 484
a 565 594 135
a 566 597 801
a 566 596 298
a 566 595 368
a 567 598 436
a 567 597 575
a 567 596 368
a 568 599 658
a 568 598 891
a 568 597 834
a 569 600 130
a 569 599 250
a 569 598 433
a 570 601 693
a 570 600 891
a 570 599 824
a 571 572 150
a 571 601 830
a 571 600 348
a 572 603 141
a 572 602 523
a 572 631 836
a 573 604 456
a 573 603 544
a 573 602 69
a 574 605 526
a 574 604 67
a 574 603 340
a 575 606 161
a 575 605 254
a 575 604 737
a 576 607 458
a 576 606 621
a 576 605 53
a 577 608 184
a 577 607 88
a 577 606 5
a 578 609 227
a 578 608 22
a 578 607 441
a 579 610 528
a 579 609 506
a 579 608 198
a 580 611 570
a 580 610 429
a 580 609 379
a 581 612 499
a 581 611 828
a 581 610 171
a 582 613 122
a 582 612 764
a 582 611 321
a 583 614 717
a 583 613 884
a 583 612 461
a 584 615 783
a 584 614 324
a 584 613 68
a 585 616 136
a 585 615 212
a 585 614 593
a 586 617 809
a 586 616 264
a 586 615 754
a 587 618 896
a 587 617 269
a 587 616 363
a 588 619 69
a 588 618 761
a 588 617 599
a 589 620 574
a 589 619 110
a 589 618 877
a 590 621 155
a 590 620 488
a 590 619 504
a 591 622 82
a 591 621 658
a 591 620 174
a 592 623 897
a 592 622 130
a 592 621 724
a 593 624 881
a 593 623 643
a 593 622 845
a 594 625 356
a 594 624 710
a 594 623 713
a 595 626 567
a 595 625 455
a 595 624 648
a 596 627 882
a 596 626 360
a 596 625 835
a 597 628 302
a 597 627 774
a 597 626 743
a 598 629 214
a 598 628 472
a 598 627 739
a 599 630 323
a 599 629 500
a 599 628 859
a 600 631 862
a 600 630 156
a 600 629 585
a 601 602 672
a 601 631 381
a 601 630 791
a 602 633 801
a 602 632 204
a 602 661 24
a 603 634 543
a 603 633 201
a 603 632 21
a 604 635 405
a 604 634 13
a 604 633 53
a 605 636 859
a 605 635 660
a 605 634 408
a 606 637 318
a 606 636 595
a 606 635 126
a 607 638 191
a 607 637 437
a 607 636 159
a 608 639 715
a 608 638 327
a 608 637 461
a 609 640 366
a 609 639 338
a 609 638 674
a 610 641 521
a 610 640 22
a 610 639 149
a 611 642 1
a 611 641 864
a 611 640 110
a 612 643 205
a 612 642 887
a 612 641 833
a 613 644 457
a 613 643 59
a 613 642 734
a 614 645 469
a 614 644 111
a 614 643 428
a 615 646 229
a 615 645 570
a 615 644 832
a 616 647 875
a 616 646 747
a 616 645 842
a 617 648 411
a 617 647 6
a 617 646 259
a 618 649 790
a 618 648 466
a 618 647 502
a 619 650 227
a 619 649 291
a 619 648 368
a 620 651 300
a 620 650 439
a 620 649 733
a 621 652 263
a 621 651 601
a 621 650 406
a 622 653 249
a 622 652 533
a 622 651 458
a 623 654 308
a 623 653 418
a 623 652 662
a 624 655 470
a 624 654 898
a 624 653 270
a 625 656 140
a 625 655 829
a 625 654 739
a 626 657 886
a 626 656 771
a 626 655 119
a 627 658 43
a 627 657 181
a 627 656 93
a 628 659 508
a 628 658 734
a 628 657 555
a 629 660 851
a 629 659 201
a 629 658 444
a 630 661 389
a 630 660 86
a 630 659 722
a 631 632 141
a 631 661 491
a 631 660 121
a 632 663 726
a 632 662 48
a 632 691 435
a 633 664 295
a 633 663 762
a 633 662 684
a 634 665 292
a 634 664 131
a 634 663 143
a 635 666 221
a 635 665 21
a 635 664 664
a 636 667 143
a 636 666 139
a 636 665 855
a 637 668 323
a 637 667 231
a 637 666 893
a 638 669 209
a 638 668 786
a 638 667 35
a 639 670 409
a 639 669 381
a 639 668 595
a 640 671 546
a 640 670 203
a 640 669 545
a 641 672 188
a 641 671 323
a 641 670 85
a 642 673 236
a 642 672 758
a 642 671 226
a 643 674 149
a 643 673 593
a 643 672 103
a 644 675 331
a 644 674 787
a 644 673 397
a 645 676 352
a 645 675 550
a 645 674 741
a 646 677 490
a 646 676 557
a 646 675 113
a 647 678 773
a 647 677 549
a 647 676 255
a 648 679 658
a 648 678 583
a 648 677 629
a 649 680 138
a 649 679 277
a 649 678 889
a 650 681 340
a 650 680 821
a 650 679 398
a 651 682 715
a 651 681 6
a 651 680 95
a 652 683 624
a 652 682 283
a 652 681 283
a 653 684 316
a 653 683 437
a 653 682 570
a 654 685 254
a 654 684 885
a 654 683 718
a 655 686 855
a 655 685 725
a 655 684 200
a 656 687 511
a 656 686 837
a 656 685 551
a 657 688 159
a 657 687 243
a 657 686 193
a 658 689 742
a 658 688 24
a 658 687 65
a 659 690 170
a 659 689 12
a 659 688 722
a 660 691 91
a 660 690 461
a 660 689 11
a 661 662 148
a 661 691 556
a 661 690 403
a 662 693 482
a 662 692 890
a 662 721 217
a 663 694 18
a 663 693 559
a 663 692 840
a 664 695 2
a 664 694 376
a 664 693 307
a 665 696 779
a 665 695 575
a 665 694 612
a 666 697 767
a 666 696 278
a 666 695 566
a 667 698 162
a 667 697 470
a 667 696 177
a 668 699 237
a 668 698 534
a 668 697 335
a 669 700 300
a 669 699 407
a 669 698 228
a 670 701 761
a 670 700 417
a 670 699 398
a 671 702 468
a 671 701 871
a 671 700 540
a 672 703 509
a 672 702 187
a 672 701 687
a 673 704 167
a 673 703 178
a 673 702 268
a 674 705 594
a 674 704 536
a 674 703 337
a 675 706 320
a 675 705 247
a 675 704 338
a 676 707 597
a 676 706 813
a 676 705 268
a 677 708 218
a 677 707 141
a 677 706 135
a 678 709 751
a 678 708 475
a 678 707 296
a 679 710 309
a 679 709 703
a 679 708 532
a 680 711 726
a 680 710 252
a 680 709 831
a 681 712 748
a 681 711 791
a 681 710 743
a 682 713 35
a 682 712 577
a 682 711 362
a 683 714 264
a 683 713 896
a 683 712 870
a 684 715 852
a 684 714 332
a 684 713 136
a 685 716 198
a 685 715 721
a 685 714 781
a 686 717 162
a 686 716 89
a 686 715 201
a 687 718 302
a 687 717 275
a 687 716 797
a 688 719 829
a 688 718 570
a 688 717 115
a 689 720 683
a 689 719 253
a 689 718 17
a 690 721 34
a 690 720 183
a 690 719 326
a 691 692 824
a 691 721 78
a 691 720 203
a 692 723 552
a 692 722 491
a 692 751 50
a 693 724 547
a 693 723 461
a 693 722 136
a 694 725 30
a 694 724 648
a 694 723 400
a 695 726 750
a 695 725 529
a 695 724 403
a 696 727 890
a 696 726 729
a 696 725 600
a 697 728 264
a 697 727 677
a 697 726 814
a 698 729 885
a 698 728 791
a 698 727 267
a 699 730 237
a 699 729 860
a 699 728 195
a 700 731 472
a 700 730 285
a 700 729 877
a 701 732 601
a 701 731 539
a 701 730 10
a 702 733 191
a 702 732 640
a 702 731 885
a 703 734 651
a 703 733 776
a 703 732 536
a 704 735 451
a 704 734 327
a 704 733 182
a 705 736 79
a 705 735 729
a 705 734 263
a 706 737 859
a 706 736 480
a 706 735 165
a 707 738 635
a 707 737 445
a 707 736 154
a 708 739 578
a 708 738 712
a 708 737 470
a 709 740 537
a 709 739 58
a 709 738 506
a 710 741 873
a 710 740 35
a 710 739 743
a 711 742 511
a 711 741 96
a 711 740 366
a 712 743 250
a 712 742 133
a 712 741 66
a 713 744 177
a 713 743 668
a 713 742 308
a 714 745 503
a 714 744 2
a 714 743 59
a 715 746 383
a 715 745 264
a 715 744 561
a 716 747 15
a 716 746 428
a 716 745 639
a 717 748 459
a 717 747 634
a 717 746 597
a 718 749 270
a 718 748 255
a 718 747 331
a 719 750 328
a 719 749 760
a 719 748 8
a 720 751 414
a 720 750 602
a 720 749 596
a 721 722 561
a 721 751 119
a 721 750 568
a 722 753 693
a 722 752 236
a 722 781 230
a 723 754 513
a 723 753 544
a 723 752 532
a 724 755 514
a 724 754 654
a 724 753 708
a 725 756 829
a 725 755 314
a 725 754 363
a 726 757 357
a 726 756 52
a 726 755 797
a 727 758 142
a 727 757 700
a 727 756 811
a 728 759 396
a 728 758 182
a 728 757 370
a 729 760 255
a 729 759 190
a 729 758 691
a 730 761 9
a 730 760 837
a 730 759 170
a 731 762 127
a 731 761 505
a 731 760 583
a 732 763 415
a 732 762 734
a 732 761 296
a 733 764 58
a 733 763 365
a 733 762 88
a 734 765 711
a 734 764 225
a 734 763 652
a 735 766 124
a 735 765 639
a 735 764 265
a 736 767 227
a 736 766 535
a 736 765 194
a 737 768 26
a 737 767 446
a 737 766 602
a 738 769 207
a 738 768 867
a 738 767 795
a 739 770 448
a 739 769 657
a 739 768 290
a 740 771 385
a 740 770 827
a 740 769 596
a 741 772 41
a 741 771 561
a 741 770 604
a 742 773 774
a 742 772 856
a 742 771 783
a 743 774 291
a 743 773 96
a 743 772 349
a 744 775 567
a 744 774 747
a 744 773 406
a 745 776 305
a 745 775 164
a 745 774 268
a 746 777 891
a 746 776 409
a 746 775 391
a 747 778 436
a 747 777 162
a 747 776 669
a 748 779 402
a 748 778 56
a 748 777 694
a 749 780 211
a 749 779 345
a 749 778 52
a 750 781 189
a 750 780 92
a 750 779 552
a 751 752 749
a 751 781 748
a 751 780 36
a 752 783 757
a 752 782 682
a 752 811 76
a 753 784 852
a 753 783 130
a 753 782 1
a 754 785 750
a 754 784 535
a 754 783 343
a 755 786 65
a 755 785 802
a 755 784 61
a 756 787 473
a 756 786 344
a 756 785 365
a 757 788 634
a 757 787 112
a 757 786 356
a 758 789 741
a 758 788 857
a 758 787 843
a 759 790 237
a 759 789 60
a 759 788 397
a 760 791 329
a 760 790 611
a 760 789 659
a 761 792 176
a 761 791 698
a 761 790 847
a 762 793 857
a 762 792 825
a 762 791 695
a 763 794 86
a 763 793 826
a 763 792 551
a 764 795 672
a 764 794 320
a 764 793 554
a 765 796 625
a 765 795 381
a 765 794 456
a 766 797 68
a 766 796 797
a 766 795 520
a 767 798 231
a 767 797 304
a 767 796 145
a 768 799 187
a 768 798 247
a 768 797 830
a 769 800 246
a 769 799 695
a 769 798 671
a 770 801 9
a 770 800 453
a 770 799 59
a 771 802 706
a 771 801 399
a 771 800 387
a 772 803 631
a 772 802 245
a 772 801 614
a 773 804 608
a 773 803 848
a 773 802 622
a 774 805 79
a 774 804 501
a 774 803 759
a 775 806 459
a 775 805 108
a 775 804 530
a 776 807 408
a 776 806 680
a 776 805 254
a 777 808 711
a 777 807 876
a 777 806 373
a 778 809 109
a 778 808 805
a 778 807 603
a 779 810 803
a 779 809 627
a 779 808 841
a 780 811 407
a 780 810 686
a 780 809 187
a 781 782 805
a 781 811 224
a 781 810 247
a 782 813 202
a 782 812 838
a 782 841 52
a 783 814 149
a 783 813 611
a 783 812 734
a 784 815 701
a 784 814 470
a 784 813 493
a 785 816 809
a 785 815 151
a 785 814 572
a 786 817 588
a 786 816 457
a 786 815 182
a 787 818 563
a 787 817 829
a 787 816 589
a 788 819 519
a 788 818 584
a 788 817 452
a 789 820 246
a 789 819 524
a 789 818 560
a 790 821 83
a 790 820 762
a 790 819 515
a 791 822 358
a 791 821 108
a 791 820 73
a 792 823 295
a 792 822 212
a 792 821 30
a 793 824 58
a 793 823 45
a 793 822 231
a 794 825 527
a 794 824 538
a 794 823 379
a 795 826 729
a 795 825 261
a 795 824 179
a 796 827 285
a 796 826 442
a 796 825 87
a 797 828 266
a 797 827 183
a 797 826 726
a 798 829 849
a 798 828 634
a 798 827 440
a 799 830 524
a 799 829 345
a 799 828 59
a 800 831 386
a 800 830 11
a 800 829 356
a 801 832 545
a 801 831 84
a 801 830 490
a 802 833 756
a 802 832 113
a 802 831 847
a 803 834 801
a 803 833 343
a 803 832 294
a 804 835 490
a 804 834 721
a 804 833 351
a 805 836 750
a 805 835 51
a 805 834 29
a 806 837 343
a 806 836 138
a 806 835 757
a 807 838 525
a 807 837 15
a 807 836 142
a 808 839 310
a 808 838 455
a 808 837 459
a 809 840 655
a 809 839 565
a 809 838 459
a 810 841 717
a 810 840 20
a 810 839 82
a 811 812 800
a 811 841 561
a 811 840 519
a 812 842 2700
a 813 842 2700
a 814 842 2700
a 815 842 2700
a 816 842 2700
a 817 842 2700
a 818 842 2700
a 819 842 2700
a 820 842 2700
a 821 842 2700
a 822 842 2700
a 823 842 2700
a 824 842 2700
a 825 842 2700
a 826 842 2700
a 827 842 2700
a 828 842 2700
a 829 842 2700
a 830 842 2700
a 831 842 2700
a 832 842 2700
a 833 842 2700
a 834 842 2700
a 835 842 2700
a 836 842 2700
a 837 842 2700
a 838 842 2700
a 839 842 2700
a 840 842 2700
a 841 842 2700
